1234, 2020-09-09, 500
1234, 2020-09-09, 500
125, 2020-04-05, 500
1235, 2020-07-07, 200
123, 2020-03-03, 300
1234, 2020-02-02, 300
1234, 2020-03-02, 300
1223, 2020-09-09, 300
1234, 2020-02-02, 200
1234, 2020-09-09, 400
